*Vertices 108
# node_id name 108
0 Von_Mises_yield_criterion
1 Plasticity_(physics)
2 Strength_of_materials
3 Structural_analysis
4 Von_Mises
5 Dislocation_creep
6 Shear_strength
7 Tytus_Maksymilian_Huber
8 Padeye
9 Yield_surface
10 HMH
11 T-criterion
12 Mohr–Coulomb_theory
13 Cauchy_stress_tensor
14 Stress_space
15 Drucker–Prager_yield_criterion
16 Lode_coordinates
17 Huber's_equation
18 Critical_state_soil_mechanics
19 Hill_yield_criterion
20 Hosford_yield_criterion
21 Viscoplasticity
22 Material_failure_theory
23 Structural_engineering_theory
24 Heinrich_Hencky
25 Christensen_failure_criterion
26 Micro-mechanics_of_failure
27 Yu_Mao-Hong
28 Load_path_analysis
29 Stress_triaxiality
30 Bigoni–Piccolroaz_yield_criterion
31 Swarm_(simulation)
32 Mutualism_(biology)
33 Stigmergy
34 Flocking_(behavior)
35 Quorum_sensing
36 Computational_archaeology
37 Fish_migration
38 Bird_migration
39 Swarm_behaviour
40 Reverse_migration_(birds)
41 Particle_swarm_optimization
42 Boids
43 Ant_colony_optimization_algorithms
44 Swarm_intelligence
45 Swarm_(disambiguation)
46 Crowd_simulation
47 Salmon_run
48 Herd
49 Agent-based_model
50 Swarm_robotics
51 Allee_effect
52 Swarming_(honey_bee)
53 Decentralised_system
54 Pack_hunter
55 Feeding_frenzy
56 Sardine_run
57 Pack_(canine)
58 Cell_migration
59 Philopatry
60 Microbial_intelligence
61 Repast_(modeling_toolkit)
62 Mixed-species_foraging_flock
63 Lessepsian_migration
64 Animal_migration_tracking
65 Insect_migration
66 Diel_vertical_migration
67 Flock_(birds)
68 Animal_migration
69 Mobbing_(animal_behavior)
70 Swarming_motility
71 Swarm_Development_Group
72 Natal_homing
73 Swarming_(military)
74 Bees_algorithm
75 Homing_(biology)
76 Symbrion
77 Group_size_measures
78 Predator_satiation
79 Spatial_organization
80 Patterns_of_self-organization_in_ants
81 Task_allocation_and_partitioning_in_social_insects
82 Comparison_of_agent-based_modeling_software
83 Collective_intelligence
84 Eusociality
85 Herd_behavior
86 Agent-based_social_simulation
87 Collective_animal_behavior
88 Shoaling_and_schooling
89 Sort_sol
90 Ant_robotics
91 Lepidoptera_migration
92 Firefly_algorithm
93 Active_matter
94 Cuckoo_search
95 Bat_algorithm
96 Bait_ball
97 Agent-based_model_in_biology
98 Self-propelled_particles
99 Animal_navigation
100 Vicsek_model
101 Monarch_butterfly_migration
102 Symmetry_breaking_of_escaping_ants
103 Coded_wire_tag
104 Clustering_of_self-propelled_particles
105 Collective_motion
106 Swarm_robotic_platforms
107 Swarm_3D_printing
*Arcs 106
# source target weight
1 0 1.0
2 0 1.0
3 0 1.0
4 0 1.0
5 0 1.0
6 0 1.0
7 0 1.0
8 0 1.0
9 0 1.0
10 0 1.0
11 0 1.0
12 0 1.0
13 0 1.0
14 0 1.0
15 0 1.0
16 0 1.0
17 0 1.0
18 0 1.0
19 0 1.0
20 0 1.0
21 0 1.0
22 0 1.0
23 0 1.0
24 0 1.0
25 0 1.0
26 0 1.0
27 0 1.0
28 0 1.0
29 0 1.0
30 0 1.0
32 31 1.0
33 31 1.0
34 31 1.0
35 31 1.0
36 31 1.0
37 31 1.0
38 31 1.0
39 31 1.0
40 31 1.0
41 31 1.0
42 31 1.0
43 31 1.0
44 31 1.0
45 31 1.0
46 31 1.0
47 31 1.0
48 31 1.0
49 31 1.0
50 31 1.0
51 31 1.0
52 31 1.0
53 31 1.0
54 31 1.0
55 31 1.0
56 31 1.0
57 31 1.0
58 31 1.0
59 31 1.0
60 31 1.0
61 31 1.0
62 31 1.0
63 31 1.0
64 31 1.0
65 31 1.0
66 31 1.0
67 31 1.0
68 31 1.0
69 31 1.0
70 31 1.0
71 31 1.0
72 31 1.0
73 31 1.0
74 31 1.0
75 31 1.0
76 31 1.0
77 31 1.0
78 31 1.0
79 31 1.0
80 31 1.0
81 31 1.0
82 31 1.0
83 31 1.0
84 31 1.0
85 31 1.0
86 31 1.0
87 31 1.0
88 31 1.0
89 31 1.0
90 31 1.0
91 31 1.0
92 31 1.0
93 31 1.0
94 31 1.0
95 31 1.0
96 31 1.0
97 31 1.0
98 31 1.0
99 31 1.0
100 31 1.0
101 31 1.0
102 31 1.0
103 31 1.0
104 31 1.0
105 31 1.0
106 31 1.0
107 31 1.0