*Vertices 98
# node_id name 98
0 Von_Mises_yield_criterion
1 Plasticity_(physics)
2 Strength_of_materials
3 Structural_analysis
4 Von_Mises
5 Dislocation_creep
6 Shear_strength
7 Tytus_Maksymilian_Huber
8 Padeye
9 Yield_surface
10 HMH
11 T-criterion
12 Mohr–Coulomb_theory
13 Cauchy_stress_tensor
14 Stress_space
15 Drucker–Prager_yield_criterion
16 Lode_coordinates
17 Huber's_equation
18 Critical_state_soil_mechanics
19 Hill_yield_criterion
20 Hosford_yield_criterion
21 Viscoplasticity
22 Material_failure_theory
23 Structural_engineering_theory
24 Heinrich_Hencky
25 Christensen_failure_criterion
26 Micro-mechanics_of_failure
27 Yu_Mao-Hong
28 Load_path_analysis
29 Stress_triaxiality
30 Bigoni–Piccolroaz_yield_criterion
31 3-D_elasticity
32 Adhesion
33 American_Institute_of_Steel_Construction
34 Archimedes'_principle
35 Atmosphere
36 Bending
37 Bernoulli's_principle
38 Boyle's_law
39 Buoyancy
40 Capillary_action
41 Charles's_law
42 Chromatography
43 Clausius–Duhem_inequality
44 Cohesion_(chemistry)
45 Combined_gas_law
46 Compatibility_(mechanics)
47 Conservation_of_energy
48 Conservation_of_mass
49 Conservation_of_momentum
50 Contact_mechanics
51 Continuum_mechanics
52 Degrees_of_freedom_(mechanics)
53 Doi_(identifier)
54 Ductile
55 Elasticity_(physics)
56 Electrorheological_fluid
57 Engineering
58 Ferrofluid
59 Fick's_law
60 Fick's_laws_of_diffusion
61 Finite_strain_theory
62 Fluid
63 Fluid_dynamics
64 Fluid_mechanics
65 Fracture_mechanics
66 Frictional_contact_mechanics
67 Gas
68 Gay-Lussac's_law
69 Graham's_law
70 Hagen–Poiseuille_equation
71 Hoek–Brown_failure_criterion
72 Hooke's_law
73 Hydrostatics
74 ISBN_(identifier)
75 Infinitesimal_strain_theory
76 Linear_elasticity
77 Liquid
78 Magnetorheological_fluid
79 Materials_science
80 Metals
81 Mixing_(process_engineering)
82 Navier–Stokes_equations
83 Newtonian_fluid
84 Non-Newtonian_fluid
85 Pascal's_law
86 Plasma_(physics)
87 Rheology
88 Rheometer
89 Rheometry
90 Smart_fluid
91 Solid_mechanics
92 Strain_(materials_science)
93 Stress_(physics)
94 Surface_tension
95 Viscoelasticity
96 Yield_(engineering)
97 Yield_strength
*Arcs 105
# source target weight
0 52 1.0
0 73 1.0
0 17 1.0
0 72 1.0
0 71 1.0
0 24 1.0
0 70 1.0
0 69 1.0
0 68 1.0
0 67 1.0
0 66 1.0
0 74 1.0
0 65 1.0
0 63 1.0
0 62 1.0
0 61 1.0
0 60 1.0
0 59 1.0
0 58 1.0
0 57 1.0
0 56 1.0
0 55 1.0
0 54 1.0
0 64 1.0
0 75 1.0
0 76 1.0
0 77 1.0
0 96 1.0
0 95 1.0
0 7 1.0
0 94 1.0
0 93 1.0
0 92 1.0
0 91 1.0
0 90 1.0
0 89 1.0
0 88 1.0
0 87 1.0
0 1 2.5
0 86 1.0
0 85 1.0
0 84 1.0
0 83 1.0
0 82 1.0
0 12 1.0
0 81 1.0
0 80 1.0
0 79 1.0
0 22 1.0
0 78 1.0
0 53 1.0
0 97 1.0
0 9 1.0
0 50 1.0
0 32 1.0
0 33 1.0
0 34 1.0
0 35 1.0
0 36 1.0
0 37 1.0
0 38 1.0
0 39 1.0
0 40 1.0
0 13 1.0
0 41 1.0
0 42 1.0
0 43 1.0
0 44 1.0
0 45 1.0
0 46 1.0
0 47 1.0
0 48 1.0
0 49 1.0
0 31 1.0
0 51 1.0
1 0 2.5
2 0 1.0
3 0 1.0
4 0 1.0
5 0 1.0
6 0 1.0
7 0 1.0
8 0 1.0
9 0 1.0
10 0 1.0
11 0 1.0
12 0 1.0
13 0 1.0
14 0 1.0
15 0 1.0
16 0 1.0
17 0 1.0
18 0 1.0
19 0 1.0
20 0 1.0
21 0 1.0
22 0 1.0
23 0 1.0
24 0 1.0
25 0 1.0
26 0 1.0
27 0 1.0
28 0 1.0
29 0 1.0
30 0 1.0