*Vertices 98
# node_id name 98
0 Strength_of_materials
1 Hosford_yield_criterion
2 Cauchy_stress_tensor
3 Combined_gas_law
4 Fick's_laws_of_diffusion
5 Rheometry
6 Contact_mechanics
7 Yield_surface
8 Elasticity_(physics)
9 Stress_triaxiality
10 Fracture_mechanics
11 ISBN_(identifier)
12 HMH
13 Bernoulli's_principle
14 Linear_elasticity
15 Finite_strain_theory
16 Structural_engineering_theory
17 Archimedes'_principle
18 Von_Mises
19 Tytus_Maksymilian_Huber
20 Conservation_of_energy
21 T-criterion
22 Pascal's_law
23 Clausius–Duhem_inequality
24 Surface_tension
25 Material_failure_theory
26 3-D_elasticity
27 Ferrofluid
28 Yield_strength
29 Mohr–Coulomb_theory
30 Structural_analysis
31 Fluid_mechanics
32 Rheology
33 Hooke's_law
34 Huber's_equation
35 Metals
36 Materials_science
37 Gas
38 Frictional_contact_mechanics
39 Bending
40 Graham's_law
41 Degrees_of_freedom_(mechanics)
42 Gay-Lussac's_law
43 Doi_(identifier)
44 Fluid_dynamics
45 Micro-mechanics_of_failure
46 Non-Newtonian_fluid
47 Continuum_mechanics
48 Magnetorheological_fluid
49 Cohesion_(chemistry)
50 Capillary_action
51 Yu_Mao-Hong
52 Buoyancy
53 Mixing_(process_engineering)
54 Hill_yield_criterion
55 Smart_fluid
56 Plasma_(physics)
57 Critical_state_soil_mechanics
58 Engineering
59 Strain_(materials_science)
60 Electrorheological_fluid
61 Lode_coordinates
62 Compatibility_(mechanics)
63 Padeye
64 Stress_space
65 Hoek–Brown_failure_criterion
66 Shear_strength
67 Ductile
68 Hagen–Poiseuille_equation
69 Conservation_of_mass
70 Hydrostatics
71 Rheometer
72 Atmosphere
73 Stress_(physics)
74 Navier–Stokes_equations
75 Fluid
76 Dislocation_creep
77 Von_Mises_yield_criterion
78 Solid_mechanics
79 Charles's_law
80 Conservation_of_momentum
81 Viscoelasticity
82 Chromatography
83 Bigoni–Piccolroaz_yield_criterion
84 Plasticity_(physics)
85 Drucker–Prager_yield_criterion
86 Fick's_law
87 Yield_(engineering)
88 Liquid
89 Newtonian_fluid
90 Load_path_analysis
91 Boyle's_law
92 American_Institute_of_Steel_Construction
93 Viscoplasticity
94 Infinitesimal_strain_theory
95 Heinrich_Hencky
96 Christensen_failure_criterion
97 Adhesion
*Arcs 105
# source target weight
77 41 1.0
77 70 1.0
77 34 1.0
77 33 1.0
77 65 1.0
77 95 1.0
77 68 1.0
77 40 1.0
77 42 1.0
77 37 1.0
77 38 1.0
77 11 1.0
77 10 1.0
77 44 1.0
77 75 1.0
77 15 1.0
77 4 1.0
77 86 1.0
77 27 1.0
77 58 1.0
77 60 1.0
77 8 1.0
77 67 1.0
77 31 1.0
77 94 1.0
77 14 1.0
77 88 1.0
77 87 1.0
77 81 1.0
77 19 1.0
77 24 1.0
77 73 1.0
77 59 1.0
77 78 1.0
77 55 1.0
77 5 1.0
77 71 1.0
77 32 1.0
77 84 2.5
77 56 1.0
77 22 1.0
77 46 1.0
77 89 1.0
77 74 1.0
77 29 1.0
77 53 1.0
77 35 1.0
77 36 1.0
77 25 1.0
77 48 1.0
77 43 1.0
77 28 1.0
77 7 1.0
77 6 1.0
77 97 1.0
77 92 1.0
77 17 1.0
77 72 1.0
77 39 1.0
77 13 1.0
77 91 1.0
77 52 1.0
77 50 1.0
77 2 1.0
77 79 1.0
77 82 1.0
77 23 1.0
77 49 1.0
77 3 1.0
77 62 1.0
77 20 1.0
77 69 1.0
77 80 1.0
77 26 1.0
77 47 1.0
34 77 1.0
95 77 1.0
19 77 1.0
84 77 2.5
29 77 1.0
25 77 1.0
7 77 1.0
2 77 1.0
0 77 1.0
30 77 1.0
18 77 1.0
76 77 1.0
66 77 1.0
63 77 1.0
12 77 1.0
21 77 1.0
64 77 1.0
85 77 1.0
61 77 1.0
57 77 1.0
54 77 1.0
1 77 1.0
93 77 1.0
16 77 1.0
96 77 1.0
45 77 1.0
51 77 1.0
90 77 1.0
9 77 1.0
83 77 1.0